
List of user-set options:

                                    Name   Value                used
                           compl_inf_tol = 1                     yes
                         constr_viol_tol = 1                     yes
                            dual_inf_tol = 1000                  yes
                           linear_solver = ma97                  yes
                              ma86_small = 1e-30                  no
                                  ma86_u = 0.0001                 no
                              ma97_order = best                  yes
                              ma97_small = 1e-30                 yes
                            ma97_switch1 = at_start              yes
                            ma97_switch2 = od_hd_reuse           yes
                                  ma97_u = 1e-06                 yes
                               ma97_umax = 0.5                   yes
                                max_iter = 1000                  yes
                    max_refinement_steps = 20                    yes
                    min_refinement_steps = 5                     yes
                                 mu_init = 1e-06                 yes
           mu_superlinear_decrease_power = 1.25                  yes
                   nlp_scaling_min_value = 1e-08                 yes
                        option_file_name = Preset_Case:_72_NCP.opt  yes
                             output_file = ./tmp/Preset_Case:_72_NCP.output  yes
                      print_user_options = yes                   yes
        required_infeasibility_reduction = 1                      no
                                     tol = 1e-08                 yes
                   warm_start_bound_frac = 1e-20                 yes
                   warm_start_bound_push = 1e-20                 yes
                   warm_start_init_point = yes                   yes
              warm_start_mult_bound_push = 1e-20                 yes
                warm_start_mult_init_max = 1e+40                 yes
             warm_start_slack_bound_frac = 1e-20                 yes
             warm_start_slack_bound_push = 1e-20                 yes

******************************************************************************
This program contains Ipopt, a library for large-scale nonlinear optimization.
 Ipopt is released as open source code under the Eclipse Public License (EPL).
         For more information visit http://projects.coin-or.org/Ipopt
******************************************************************************

This is Ipopt version 3.12.10, running with linear solver ma97.

Number of nonzeros in equality constraint Jacobian...:   117167
Number of nonzeros in inequality constraint Jacobian.:      213
Number of nonzeros in Lagrangian Hessian.............:    47513

Total number of variables............................:    29977
                     variables with only lower bounds:    11312
                variables with lower and upper bounds:    15135
                     variables with only upper bounds:        0
Total number of equality constraints.................:    29864
Total number of inequality constraints...............:       25
        inequality constraints with only lower bounds:        4
   inequality constraints with lower and upper bounds:        0
        inequality constraints with only upper bounds:       21

iter    objective    inf_pr   inf_du lg(mu)  ||d||  lg(rg) alpha_du alpha_pr  ls
   0 -1.2107294e-02 2.74e-01 2.00e+00  -6.0 0.00e+00    -  0.00e+00 0.00e+00   0
In iteration 0, 9 Slacks too small, adjusting variable bounds
   1 -1.2107294e-02 2.74e-01 4.38e+02  -6.0 1.07e+10    -  4.37e-14 3.81e-19h  1
   2 -1.2107331e-02 2.74e-01 4.39e+02  -6.0 9.59e+01    -  5.89e-07 1.96e-05f  1
   3 -1.2107336e-02 2.74e-01 4.40e+02  -6.0 5.78e+01    -  2.16e-02 1.21e-06h  2
   4 -1.2107394e-02 2.74e-01 4.40e+02  -6.0 9.92e+01    -  5.55e-04 4.21e-05h  1
   5 -1.2184463e-02 2.70e-01 4.42e+02  -6.0 6.86e+01    -  5.05e-02 1.27e-02f  1
   6 -1.2884821e-02 2.48e-01 3.82e+02  -6.0 1.93e+02    -  1.26e-02 1.45e-01f  1
   7 -1.3129076e-02 2.52e-01 3.92e+04  -6.0 7.22e+01    -  2.40e-01 7.93e-02h  1
   8 -1.3169549e-02 2.66e-01 4.48e+04  -6.0 6.78e+01    -  2.24e-01 1.27e-01h  2
   9 -1.2922541e-02 2.69e-01 4.29e+04  -6.0 6.44e+01    -  2.21e-01 1.42e-01h  2
iter    objective    inf_pr   inf_du lg(mu)  ||d||  lg(rg) alpha_du alpha_pr  ls
  10 -1.2918286e-02 2.68e-01 5.15e+04  -6.0 5.52e+01    -  2.59e-01 1.94e-03h  8
  11 -1.2915002e-02 2.68e-01 5.43e+04  -6.0 5.56e+01    -  2.90e-01 1.22e-03h  9
  12 -1.2914440e-02 2.68e-01 5.23e+04  -6.0 5.85e+01    -  3.31e-01 1.63e-04h 12
  13 -1.1286392e-02 4.90e-01 3.37e+04  -6.0 6.74e+01    -  3.57e-01 3.57e-01s 21
  14 -1.1285428e-02 4.90e-01 3.37e+04  -6.0 4.12e+01    -  2.73e-04 2.73e-04s 21
  15 -1.1311562e-02 4.66e-01 3.16e+04  -6.0 4.24e+01    -  6.41e-02 6.41e-02s 21
  16r-1.1311562e-02 4.66e-01 1.00e+03  -0.6 0.00e+00    -  0.00e+00 0.00e+00R  1
  17r-1.1241516e-02 4.63e-01 2.12e+03  -0.6 2.58e+03    -  1.36e-05 9.71e-06f  1
  18 -1.1240614e-02 4.62e-01 1.44e+07  -6.0 3.37e+01    -  1.48e-01 2.66e-03h  1
  19 -1.1055203e-02 3.90e-01 1.18e+09  -6.0 3.32e+01    -  2.67e-03 2.15e-01h  1
iter    objective    inf_pr   inf_du lg(mu)  ||d||  lg(rg) alpha_du alpha_pr  ls
  20 -1.1054843e-02 3.89e-01 1.18e+09  -6.0 3.05e+01    -  1.95e-01 1.98e-03h  1
  21 -1.1149692e-02 3.29e-01 9.40e+08  -6.0 3.16e+01    -  2.59e-01 2.04e-01h  1
  22 -1.1136713e-02 3.08e-01 8.76e+08  -6.0 4.89e+01    -  2.23e-01 6.83e-02h  1
  23 -1.1213218e-02 2.73e-01 8.12e+08  -6.0 9.97e+01    -  2.83e-01 7.34e-02h  1
  24 -1.1300508e-02 2.29e-01 7.63e+08  -6.0 1.63e+02    -  4.11e-01 5.96e-02h  3
  25 -1.1389926e-02 2.17e-01 7.18e+08  -6.0 1.51e+02    -  4.06e-01 6.00e-02h  3
  26 -1.1463450e-02 2.06e-01 6.78e+08  -6.0 1.53e+02    -  4.69e-01 5.56e-02h  3
  27 -1.1487573e-02 1.94e-01 6.37e+08  -6.0 1.79e+02    -  2.56e-01 5.97e-02h  3
  28 -1.1452463e-02 1.73e-01 5.91e+08  -6.0 2.00e+02    -  3.93e-01 7.23e-02h  3
  29 -1.1390481e-02 1.57e-01 5.83e+08  -6.0 6.44e+02    -  9.54e-02 1.42e-02h  4
iter    objective    inf_pr   inf_du lg(mu)  ||d||  lg(rg) alpha_du alpha_pr  ls
  30 -1.1428600e-02 1.54e-01 5.73e+08  -6.0 3.50e+01  -4.0 2.07e-01 1.68e-02h  4
  31 -1.1427455e-02 1.54e-01 5.72e+08  -6.0 9.82e+01  -4.5 4.27e-03 1.04e-03h  8
  32 -1.1420724e-02 1.54e-01 5.71e+08  -6.0 6.79e+01  -4.1 2.25e-03 2.46e-03h  7
  33 -1.1427136e-02 1.53e-01 5.66e+08  -6.0 3.41e+01  -3.6 1.24e-02 8.94e-03h  5
  34 -1.0928784e-02 3.91e+00 5.08e+08  -6.0 8.95e+01  -4.1 7.20e-03 1.02e-01w  1
  35 -1.1131100e-02 5.69e+00 4.79e+08  -6.0 1.28e+02  -4.6 3.70e-02 5.69e-02w  1
  36 -1.0999685e-02 5.52e+00 4.62e+08  -6.0 4.33e+01  -4.2 5.22e-02 3.54e-02w  1
  37 -1.1419349e-02 1.52e-01 5.65e+08  -6.0 2.63e+01  -3.7 7.20e-03 1.59e-03h  6
  38 -1.1415369e-02 1.52e-01 5.65e+08  -6.0 1.29e+02  -4.2 5.14e-03 5.40e-04h  8
  39 -1.1411338e-02 1.52e-01 5.62e+08  -6.0 4.04e+01  -3.8 3.44e-02 5.01e-03h  6
iter    objective    inf_pr   inf_du lg(mu)  ||d||  lg(rg) alpha_du alpha_pr  ls
  40 -1.1407106e-02 1.51e-01 5.62e+08  -6.0 1.80e+02  -4.3 4.41e-03 3.97e-04h  8
  41 -1.1398071e-02 1.51e-01 5.58e+08  -6.0 4.59e+01  -3.8 1.99e-03 5.45e-03h  6
  42 -1.1396041e-02 1.51e-01 5.58e+08  -6.0 2.43e+02  -4.3 9.37e-03 1.46e-04h  9
  43 -1.1388342e-02 1.50e-01 5.57e+08  -6.0 5.04e+01  -3.9 4.33e-03 3.04e-03h  7
  44 -1.1386340e-02 1.50e-01 5.57e+08  -6.0 2.95e+02  -4.4 6.95e-03 1.18e-04h  9
  45 -1.1378185e-02 1.50e-01 5.55e+08  -6.0 5.42e+01  -3.9 3.26e-02 2.66e-03h  7
  46 -1.1376210e-02 1.50e-01 5.55e+08  -6.0 3.81e+02  -4.4 4.19e-03 8.97e-05h  9
  47 -1.0840950e-02 3.34e+00 4.74e+08  -6.0 5.85e+01  -4.0 1.88e-01 1.46e-01w  1
  48 -1.0830115e-02 3.56e+00 4.27e+08  -6.0 4.92e+01  -4.5 6.56e-02 9.87e-02w  1
  49 -1.0654449e-02 3.43e+00 3.97e+08  -6.0 8.95e+01  -4.9 7.26e-02 7.10e-02w  1
iter    objective    inf_pr   inf_du lg(mu)  ||d||  lg(rg) alpha_du alpha_pr  ls
  50 -1.1367847e-02 1.49e-01 5.54e+08  -6.0 5.58e+01  -4.5 1.88e-01 2.28e-03h  6
  51 -1.1359125e-02 1.49e-01 5.53e+08  -6.0 7.39e+01  -4.1 1.05e-02 1.56e-03h  7
  52 -1.1355498e-02 1.48e-01 5.48e+08  -6.0 3.49e+01  -3.7 2.03e-01 9.62e-03h  5
  53 -1.1346795e-02 1.48e-01 5.47e+08  -6.0 1.16e+02  -4.1 1.73e-02 9.41e-04h  7
  54 -1.1334200e-02 1.46e-01 5.41e+08  -6.0 3.51e+01  -3.7 7.77e-02 1.05e-02h  5
  55 -1.1333898e-02 1.46e-01 5.41e+08  -6.0 1.60e+02  -4.2 1.33e-02 2.30e-05h  1
  56 -1.1322875e-02 1.45e-01 5.38e+08  -6.0 3.70e+01  -3.8 1.27e-02 5.73e-03h  6
  57 -1.1318567e-02 1.45e-01 5.38e+08  -6.0 1.56e+02  -4.2 3.24e-02 3.27e-04h  8
  58 -1.1303901e-02 1.44e-01 5.35e+08  -6.0 3.68e+01  -3.8 6.97e-02 6.23e-03h  6
  59 -1.1303447e-02 1.44e-01 5.35e+08  -6.0 1.71e+02  -4.3 1.30e-02 2.77e-05h  1
iter    objective    inf_pr   inf_du lg(mu)  ||d||  lg(rg) alpha_du alpha_pr  ls
  60 -1.1286763e-02 1.44e-01 5.32e+08  -6.0 3.84e+01  -3.9 3.94e-03 5.67e-03h  6
  61 -1.1286554e-02 1.44e-01 5.32e+08  -6.0 1.63e+02  -4.3 4.28e-02 1.28e-05h  1
  62 -1.1285236e-02 1.44e-01 5.32e+08  -6.0 1.11e+03  -4.8 2.24e-03 1.47e-05h  8
  63 -1.1266755e-02 1.43e-01 5.31e+08  -6.0 5.87e+01  -4.4 4.85e-02 2.18e-03h  6
  64 -1.1257673e-02 1.43e-01 5.30e+08  -6.0 1.40e+02  -4.9 1.63e-02 4.78e-04h  6
  65 -1.1220318e-02 1.43e-01 5.28e+08  -6.0 5.58e+01  -4.4 1.82e-01 4.66e-03h  5
  66 -1.0889699e-02 1.35e-01 5.14e+08  -6.0 4.43e+02  -4.9 3.48e-02 2.66e-02h  2
  67 -1.0832467e-02 1.34e-01 5.09e+08  -6.0 7.49e+01  -4.5 2.29e-02 8.40e-03h  4
  68 -1.0783362e-02 1.32e-01 5.01e+08  -6.0 4.08e+01  -4.1 1.15e-01 1.62e-02h  4
  69 -1.0669441e-02 1.34e-01 4.87e+08  -6.0 1.12e+02  -4.5 1.55e-02 2.73e-02h  4
iter    objective    inf_pr   inf_du lg(mu)  ||d||  lg(rg) alpha_du alpha_pr  ls
  70 -1.0599909e-02 1.33e-01 4.76e+08  -6.0 3.98e+01  -4.1 1.12e-01 2.29e-02h  4
  71 -1.0536890e-02 1.34e-01 4.70e+08  -6.0 1.12e+02  -4.6 3.14e-02 1.32e-02h  4
  72 -1.0095833e-02 7.51e-01 3.90e+08  -6.0 4.19e+01  -4.2 2.69e-02 1.69e-01w  1
  73 -8.9704673e-03 8.45e-01 3.52e+08  -6.0 3.00e+02  -4.6 8.14e-02 9.75e-02w  1
  74 -8.5504033e-03 1.20e+00 2.56e+08  -6.0 2.34e+01  -3.3 1.98e-01 2.72e-01w  1
  75 -1.0481758e-02 1.33e-01 4.60e+08  -6.0 3.62e+01  -3.8 2.69e-02 2.12e-02h  3
  76 -1.0479543e-02 1.33e-01 4.58e+08  -6.0 6.48e+01  -4.3 3.82e-02 3.49e-03h  5
  77 -1.0465904e-02 1.31e-01 4.48e+08  -6.0 3.15e+01  -3.8 1.34e-01 2.22e-02h  4
  78 -1.0514729e-02 1.28e-01 4.25e+08  -6.0 2.31e+01  -3.4 4.74e-01 5.27e-02h  3
  79 -1.0499914e-02 1.26e-01 4.17e+08  -6.0 3.76e+01  -3.9 8.32e-02 1.83e-02h  3
iter    objective    inf_pr   inf_du lg(mu)  ||d||  lg(rg) alpha_du alpha_pr  ls
  80 -1.0475248e-02 1.23e-01 3.93e+08  -6.0 2.11e+01  -3.5 6.20e-01 5.78e-02h  3
  81 -1.0565608e-02 1.15e-01 3.54e+08  -6.0 1.54e+01  -3.0 6.88e-01 9.91e-02h  2
  82 -1.0519043e-02 1.13e-01 3.47e+08  -6.0 2.13e+01  -3.5 3.05e-01 1.82e-02h  4
  83 -1.0497653e-02 1.08e-01 3.32e+08  -6.0 1.58e+01  -3.1 8.80e-01 4.56e-02h  4
  84 -1.0454096e-02 1.07e-01 3.27e+08  -6.0 2.38e+01  -3.6 2.01e-01 1.42e-02h  4
  85 -9.8984624e-03 2.11e+00 1.54e+08  -6.0 1.79e+01  -3.1 9.34e-01 5.30e-01w  1
  86 -9.6542298e-03 1.10e+00 1.47e+08  -6.0 1.26e+02  -3.6 4.08e-02 4.23e-02w  1
  87 -9.3627774e-03 1.84e+00 1.37e+08  -6.0 1.39e+02  -4.1 4.21e-02 6.71e-02w  1
  88 -1.0419369e-02 1.03e-01 3.16e+08  -6.0 5.63e+01  -3.7 9.34e-01 3.31e-02h  4
  89 -1.0365784e-02 1.00e-01 3.06e+08  -6.0 2.01e+01  -3.3 6.64e-01 3.11e-02h  5
iter    objective    inf_pr   inf_du lg(mu)  ||d||  lg(rg) alpha_du alpha_pr  ls
  90 -1.0376513e-02 1.06e-01 3.06e+08  -6.0 5.52e+02  -3.7 1.82e-02 1.63e-03h  3
  91 -1.0276079e-02 9.87e-02 2.92e+08  -6.0 2.18e+01  -3.3 3.05e-01 4.49e-02h  4
  92 -1.0248999e-02 8.92e-02 2.70e+08  -6.0 1.72e+01  -2.9 1.69e-01 7.54e-02h  4
  93 -1.0161717e-02 8.88e-02 2.61e+08  -6.0 2.48e+01  -3.4 2.97e-01 3.23e-02h  4
  94 -1.0126315e-02 8.77e-02 2.49e+08  -6.0 1.94e+01  -2.9 3.02e-01 4.78e-02h  4
  95 -1.0119067e-02 8.81e-02 2.48e+08  -6.0 5.70e+01  -3.4 8.70e-02 1.87e-03h  1
  96 -1.0084567e-02 8.68e-02 2.38e+08  -6.0 2.01e+01  -3.0 9.24e-05 4.04e-02h  4
  97 -1.0070196e-02 8.71e-02 2.37e+08  -6.0 3.22e+01  -3.5 3.45e-01 4.37e-03h  1
  98 -1.0039187e-02 8.64e-02 2.30e+08  -6.0 2.16e+01  -3.0 7.11e-04 3.16e-02h  4
  99 -1.0070316e-02 9.51e-02 2.13e+08  -6.0 1.64e+01  -2.6 6.57e-02 7.43e-02h  3
iter    objective    inf_pr   inf_du lg(mu)  ||d||  lg(rg) alpha_du alpha_pr  ls
 100 -1.0013136e-02 9.52e-02 2.04e+08  -6.0 1.39e+01  -3.1 7.71e-03 4.18e-02h  1
 101 -9.9927693e-03 9.32e-02 1.97e+08  -6.0 9.38e+00  -2.7 6.84e-02 3.10e-02h  1
 102 -9.8214352e-03 1.17e-01 1.74e+08  -6.0 1.46e+01  -3.1 1.54e-01 1.20e-01h  2
 103 -9.7290907e-03 1.16e-01 1.50e+08  -6.0 8.80e+00  -2.7 4.69e-01 1.36e-01h  1
 104 -9.6812556e-03 1.14e-01 1.44e+08  -6.0 1.13e+01  -3.2 5.44e-01 4.31e-02h  1
 105 -9.5450725e-03 1.03e-01 1.29e+08  -6.0 1.41e+01  -3.7 2.91e-02 1.02e-01h  3
 106 -9.5438758e-03 1.03e-01 1.29e+08  -6.0 7.57e+00  -3.2 7.60e-01 1.50e-03h  1
 107 -9.3940371e-03 1.76e-01 1.12e+08  -6.0 1.27e+01  -3.7 1.91e-01 1.31e-01h  3
 108 -8.8724008e-03 7.43e-02 4.93e+06  -6.0 7.06e+00  -3.3 2.72e-01 9.56e-01H  1
 109 -9.0457976e-03 1.34e-01 3.36e+06  -6.0 1.57e+01  -3.8 2.51e-01 3.17e-01h  1
iter    objective    inf_pr   inf_du lg(mu)  ||d||  lg(rg) alpha_du alpha_pr  ls
 110r-9.0457976e-03 1.34e-01 1.00e+03  -1.3 0.00e+00  -4.2 0.00e+00 1.58e-07R  2
 111r-9.0174331e-03 1.28e-01 1.00e+03  -1.3 3.72e+03    -  4.94e-05 4.34e-05f  1
 112 -9.0273287e-03 1.83e-02 3.27e+07  -6.0 7.41e-01    -  5.27e-01 8.56e-01h  1
 113 -9.0369615e-03 2.77e-03 8.80e+06  -6.0 1.11e-01    -  6.24e-01 8.49e-01h  1
 114 -9.0662724e-03 1.55e-05 1.69e+06  -6.0 6.20e-02    -  8.84e-01 1.00e+00h  1
 115 -9.3287158e-03 5.68e-04 1.89e+05  -6.0 5.29e-01    -  8.62e-01 1.00e+00h  1
 116 -1.0601033e-02 2.58e-02 1.17e+05  -6.0 3.94e+00    -  3.80e-01 7.59e-01h  1
 117 -1.0946488e-02 2.13e-02 3.22e+04  -6.0 5.01e+00    -  7.25e-01 2.23e-01f  1
 118 -1.2133556e-02 3.20e-02 2.33e+04  -6.0 2.27e+01    -  2.77e-01 3.85e-01H  1
 119 -1.2273213e-02 3.42e-02 1.20e+04  -6.0 4.08e+01    -  4.85e-01 6.80e-02h  4
iter    objective    inf_pr   inf_du lg(mu)  ||d||  lg(rg) alpha_du alpha_pr  ls
 120 -1.2381711e-02 3.58e-02 7.14e+03  -6.0 7.91e+01    -  4.04e-01 3.03e-02h  5
 121 -1.2494638e-02 3.79e-02 3.38e+03  -6.0 1.34e+02    -  5.27e-01 2.33e-02h  5
 122 -1.2570569e-02 3.88e-02 1.92e+03  -6.0 2.82e+02    -  4.31e-01 1.21e-02h  5
 123 -1.2664512e-02 1.63e-02 2.64e+02  -6.0 1.19e+00  -4.7 8.62e-01 7.62e-01h  1
 124 -1.3183019e-02 7.73e-02 1.83e+02  -6.0 4.41e+00  -5.2 3.06e-01 1.00e+00f  1
 125 -1.3882346e-02 1.85e-01 8.45e+01  -6.0 1.52e+01  -5.7 5.39e-01 4.34e-01h  1
 126 -1.4411686e-02 2.49e-01 8.45e+01  -6.0 6.42e+01  -6.1 6.62e-04 9.13e-02h  1
 127 -1.4601056e-02 1.88e-01 8.03e+01  -6.0 6.60e+00  -5.7 4.87e-02 3.77e-01h  1
 128 -1.4737888e-02 1.85e-01 6.93e+01  -6.0 3.32e+01  -6.2 1.38e-01 5.41e-02h  1
 129 -1.5499493e-02 1.09e+00 3.49e+01  -6.0 2.00e+01  -5.8 4.97e-01 3.41e-01h  1
iter    objective    inf_pr   inf_du lg(mu)  ||d||  lg(rg) alpha_du alpha_pr  ls
 130 -1.5697780e-02 8.99e-01 3.07e+01  -6.0 3.69e+01  -6.3 1.21e-01 1.97e-01h  1
 131 -1.5754992e-02 8.74e-01 2.92e+01  -6.0 3.53e+01  -5.8 4.61e-02 2.78e-02h  1
 132 -1.5775744e-02 8.66e-01 2.89e+01  -6.0 4.00e+02  -6.3 1.31e-02 1.76e-02h  1
 133 -1.6050269e-02 5.94e-01 1.42e+01  -6.0 9.85e+00  -5.9 1.00e+00 3.19e-01h  1
 134 -1.6150855e-02 5.60e-01 1.33e+01  -6.0 1.13e+02  -6.4 6.00e-02 6.08e-02h  1
 135 -1.6688862e-02 2.44e-01 3.78e+00  -6.0 7.97e+00  -5.9 1.00e+00 7.73e-01h  1
 136 -1.6741619e-02 2.23e-01 1.35e+01  -6.0 1.87e+01  -6.4 7.32e-01 8.19e-02h  1
 137 -1.7048980e-02 6.14e-01 2.18e+01  -6.0 4.10e+01  -6.9 1.00e+00 3.86e-01h  1
 138 -1.7305211e-02 1.24e+00 2.21e+01  -6.0 6.86e+01  -7.4 5.88e-01 2.26e-01h  1
 139 -1.7856826e-02 3.60e+00 5.13e+01  -6.0 1.23e+02  -7.8 1.00e+00 2.89e-01h  1
iter    objective    inf_pr   inf_du lg(mu)  ||d||  lg(rg) alpha_du alpha_pr  ls
 140 -1.8073957e-02 3.43e+00 4.12e+01  -6.0 6.09e+02  -8.3 2.90e-01 6.43e-02h  1
 141 -1.8443277e-02 2.09e+00 1.54e+01  -6.0 1.34e+02  -7.9 1.00e+00 3.81e-01h  1
 142 -1.8575990e-02 1.43e+00 1.59e+01  -6.0 5.12e+01  -7.5 6.18e-01 3.15e-01h  1
 143 -1.9031767e-02 8.11e-01 1.12e+01  -6.0 1.79e+02  -7.9 8.07e-01 3.95e-01h  1
 144 -1.8952305e-02 5.96e-01 7.33e+00  -6.0 1.25e+01  -5.7 2.87e-01 2.64e-01h  1
 145 -1.9001465e-02 2.96e-02 4.26e+00  -6.0 3.14e+00  -6.2 5.63e-01 1.00e+00h  1
 146 -1.9087153e-02 1.63e-01 8.02e-01  -6.0 7.49e+00  -6.7 1.00e+00 8.95e-01h  1
 147 -1.9263383e-02 1.69e-02 2.08e-01  -6.0 2.45e+01  -7.1 1.00e+00 1.00e+00h  1
 148 -1.9614350e-02 9.84e-02 1.56e+00  -6.0 9.33e+01  -7.6 7.06e-01 6.69e-01h  1
 149 -1.9646275e-02 1.54e-03 7.15e+02  -6.0 1.59e+00  -5.4 4.88e-01 1.00e+00h  1
iter    objective    inf_pr   inf_du lg(mu)  ||d||  lg(rg) alpha_du alpha_pr  ls
 150 -1.9654987e-02 7.36e-04 2.13e-01  -6.0 5.65e-01  -5.0 1.00e+00 1.00e+00h  1
 151 -1.9667603e-02 1.26e-03 2.11e+00  -6.0 1.86e+00  -5.4 9.87e-01 8.82e-01h  1
 152 -1.9703915e-02 5.50e-04 4.67e-01  -6.0 1.01e+00  -5.0 1.00e+00 1.00e+00f  1
 153 -1.9785464e-02 4.01e-03 1.71e+01  -6.0 4.83e+00  -5.5 3.12e-01 5.38e-01h  1
 154 -1.9786604e-02 1.95e-03 1.77e+01  -6.0 3.96e+00  -6.0 1.00e+00 4.03e-01f  1
 155 -1.9952288e-02 6.62e-02 9.23e+00  -6.0 8.92e+00  -6.4 4.60e-01 9.94e-01f  1
 156 -2.0063960e-02 3.26e-01 5.54e+00  -6.0 2.30e+01  -6.9 9.43e-02 5.19e-01h  1
 157 -2.0118184e-02 1.07e+00 3.81e+00  -6.0 3.95e+01  -6.5 2.46e-01 1.69e-01h  1
 158 -2.0156557e-02 1.20e+00 3.38e+00  -6.0 1.23e+02  -7.0 1.13e-01 2.76e-02h  1
 159 -2.0239658e-02 1.08e+00 7.32e+00  -6.0 7.78e+01  -7.4 4.44e-01 1.03e-01h  1
iter    objective    inf_pr   inf_du lg(mu)  ||d||  lg(rg) alpha_du alpha_pr  ls
 160 -2.1234731e-02 2.10e+00 1.15e+01  -6.0 2.83e+02  -7.9 1.00e+00 3.97e-01h  1
 161 -2.2689269e-02 8.00e+00 2.46e+01  -6.0 2.11e+03  -8.4 1.45e-01 7.86e-02h  1
 162 -2.2933900e-02 2.49e+00 1.57e+01  -6.0 6.33e+01  -7.1 1.62e-02 6.88e-01h  1
 163 -2.2908993e-02 2.32e+00 1.15e+01  -6.0 2.43e+01  -5.7 2.61e-01 7.55e-02h  1
 164 -2.3007150e-02 1.80e-01 3.73e+00  -6.0 1.67e+00  -5.3 7.14e-01 1.00e+00h  1
 165 -2.3012008e-02 1.66e-01 3.63e+00  -6.0 1.87e+00  -5.8 7.40e-01 8.05e-02h  1
 166 -2.3024703e-02 3.64e-02 7.24e-01  -6.0 4.49e+00  -6.3 1.00e+00 8.38e-01f  1
 167 -2.3145431e-02 1.31e-02 9.68e-02  -6.0 1.57e+01  -6.7 1.00e+00 1.00e+00h  1
 168 -2.3492636e-02 8.95e-02 7.93e-01  -6.0 4.54e+01  -7.2 1.00e+00 9.54e-01h  1
 169 -2.3881563e-02 1.12e-01 7.00e+00  -6.0 1.46e+02  -7.7 5.44e-01 3.85e-01h  1
iter    objective    inf_pr   inf_du lg(mu)  ||d||  lg(rg) alpha_du alpha_pr  ls
 170 -2.4043519e-02 1.11e-01 6.83e+01  -6.0 7.74e+02  -8.2 1.72e-01 3.60e-02h  1
 171 -2.4361707e-02 1.88e-01 4.92e+03  -6.0 3.96e+02  -8.7 5.97e-01 2.50e-01h  1
 172 -2.4364272e-02 1.86e-01 3.05e+03  -6.0 3.75e+01  -6.4 1.39e-01 9.46e-03h  1
 173 -2.4528771e-02 4.02e-02 8.97e+00  -6.0 2.39e+01  -6.9 1.00e+00 1.00e+00f  1
 174 -2.5048438e-02 1.18e-01 3.80e+00  -6.0 7.30e+01  -7.4 8.70e-01 1.00e+00h  1
 175 -2.5295955e-02 1.21e-01 2.79e+02  -6.0 1.92e+02  -7.9 5.72e-01 1.64e-01h  1
 176 -2.5561619e-02 1.25e-01 3.71e+02  -6.0 1.65e+02  -8.3 3.16e-01 4.02e-01h  1
 177 -2.5994463e-02 8.21e-01 2.93e+02  -6.0 1.53e+03  -8.8 1.36e-01 1.86e-01h  1
 178 -2.6130922e-02 6.86e-01 1.43e+02  -6.0 5.09e+01  -6.6 6.48e-02 3.75e-01h  1
 179 -2.6224058e-02 5.00e-01 1.14e+01  -6.0 1.08e+01  -7.1 6.32e-01 9.07e-01h  1
iter    objective    inf_pr   inf_du lg(mu)  ||d||  lg(rg) alpha_du alpha_pr  ls
 180 -2.6673101e-02 5.73e-01 9.73e+00  -6.0 5.63e+01  -7.5 4.78e-01 1.00e+00h  1
 181 -2.6783803e-02 1.53e-01 5.10e+01  -6.0 3.97e+01  -7.1 1.86e-01 1.00e+00h  1
 182 -2.7034408e-02 4.88e-01 1.54e+01  -6.0 5.42e+01  -7.6 7.12e-01 1.00e+00h  1
 183 -2.7315828e-02 3.61e+00 2.04e+01  -6.0 3.94e+02  -8.1 8.89e-02 2.77e-01h  1
 184 -2.8115244e-02 1.63e+01 2.60e+01  -6.0 1.01e+03  -8.5 2.29e-01 1.86e-01h  1
 185 -2.8295259e-02 1.60e+01 8.17e+02  -6.0 4.07e+02  -8.1 1.00e+00 8.89e-02h  1
 186 -2.8405393e-02 1.46e+01 5.00e+02  -6.0 2.81e+02  -8.6 6.37e-01 8.75e-02h  1
 187 -2.9021226e-02 6.51e+00 5.28e+01  -6.0 5.50e+02  -8.2 1.00e+00 8.55e-01h  1
 188 -2.9073869e-02 6.11e+00 4.53e+02  -6.0 1.82e+02  -8.6 4.22e-01 6.07e-02h  1
 189 -2.9482979e-02 2.30e+00 4.16e+01  -6.0 1.59e+02  -8.2 5.28e-01 7.26e-01h  1
iter    objective    inf_pr   inf_du lg(mu)  ||d||  lg(rg) alpha_du alpha_pr  ls
 190 -2.9839041e-02 2.96e+00 8.99e+02  -6.0 6.79e+02  -8.7 5.36e-01 2.54e-01h  1
 191 -3.0227433e-02 1.20e+00 3.33e+01  -6.0 1.12e+02  -8.3 1.00e+00 1.00e+00h  1
 192 -3.0484441e-02 1.05e+00 1.06e+02  -6.0 1.05e+02  -7.8 4.15e-01 4.34e-01h  1
 193 -3.0699231e-02 2.02e+00 1.44e+03  -6.0 3.54e+02  -8.3 2.00e-01 1.55e-01h  1
 194 -3.0967553e-02 1.76e+00 3.78e+03  -6.0 1.62e+02  -7.9 1.00e+00 2.70e-01h  1
 195 -3.1071264e-02 1.54e+00 1.03e+04  -6.0 2.43e+02  -8.4 3.24e-01 1.24e-01h  1
 196 -3.1420536e-02 1.04e+00 2.67e+06  -6.0 4.68e+02  -8.8 3.52e-03 3.27e-01h  1
 197 -3.1957027e-02 9.50e-01 1.56e+06  -6.0 8.17e+02  -9.3 1.01e-01 4.16e-01h  1
 198 -3.2199788e-02 1.15e+00 1.39e+06  -6.0 2.22e+03  -9.8 3.56e-01 1.04e-01h  1
 199 -3.3035782e-02 1.80e+01 1.19e+06  -6.0 1.06e+04 -10.3 1.03e-01 1.50e-01h  1
iter    objective    inf_pr   inf_du lg(mu)  ||d||  lg(rg) alpha_du alpha_pr  ls
 200 -3.3622238e-02 1.57e+01 1.03e+06  -6.0 3.34e+03  -9.8 9.01e-02 1.30e-01h  1
 201 -3.4511085e-02 1.51e+01 9.33e+05  -6.0 1.14e+04 -10.3 3.63e-02 9.45e-02h  1
 202 -3.4942102e-02 1.26e+01 7.59e+05  -6.0 1.52e+03  -9.9 3.34e-01 1.87e-01h  1
 203 -3.6130261e-02 1.84e+01 5.23e+05  -6.0 4.56e+03 -10.4 3.89e-01 3.11e-01h  1
 204 -3.6158673e-02 1.83e+01 5.19e+05  -6.0 5.13e+04 -10.9 1.18e-02 6.79e-03h  1
 205 -3.6416919e-02 1.57e+01 4.46e+05  -6.0 2.80e+03  -9.5 1.16e-02 1.41e-01h  1
 206 -3.6508345e-02 1.50e+01 4.26e+05  -6.0 3.32e+03 -10.0 7.13e-02 4.43e-02h  1
 207 -3.6757661e-02 1.28e+01 3.62e+05  -6.0 1.35e+03  -7.8 4.05e-03 1.50e-01h  1
 208 -3.6692286e-02 1.19e+01 3.37e+05  -6.0 3.70e+02  -7.3 1.02e-02 6.97e-02h  1
 209 -3.6674461e-02 1.03e+01 2.91e+05  -6.0 5.08e+02  -7.8 6.83e-02 1.35e-01f  1
iter    objective    inf_pr   inf_du lg(mu)  ||d||  lg(rg) alpha_du alpha_pr  ls
 210 -3.6722264e-02 9.17e+00 2.60e+05  -6.0 1.95e+02  -8.3 1.18e-01 1.08e-01h  1
 211 -3.6984400e-02 4.37e+00 7.89e+06  -6.0 2.57e+02  -8.8 1.64e-03 5.24e-01h  1
 212 -3.7287070e-02 1.02e+00 1.15e+03  -6.0 4.49e+02  -9.3 5.61e-01 1.00e+00h  1
 213 -3.7519564e-02 2.22e+00 9.12e+02  -6.0 1.42e+03  -9.7 2.27e-01 2.09e-01h  1
 214 -3.7832687e-02 2.76e+00 3.50e+02  -6.0 5.62e+02  -9.3 1.00e+00 6.18e-01h  1
 215 -3.8731306e-02 3.00e+01 2.22e+01  -6.0 1.38e+03  -9.8 4.68e-01 1.00e+00h  1
 216 -3.8768413e-02 2.93e+01 1.03e+02  -6.0 2.98e+03 -10.3 5.03e-01 2.43e-02h  1
 217 -3.8939717e-02 2.37e+01 4.76e+01  -6.0 1.41e+03  -9.8 7.96e-01 2.52e-01h  1
 218 -3.9370619e-02 1.43e+01 4.40e+01  -6.0 3.46e+03 -10.3 3.30e-01 3.96e-01h  1
 219 -3.9446102e-02 1.51e+01 8.00e+01  -6.0 6.46e+03  -9.9 3.44e-01 4.98e-02h  1
iter    objective    inf_pr   inf_du lg(mu)  ||d||  lg(rg) alpha_du alpha_pr  ls
 220 -3.9762299e-02 1.28e+01 6.93e+01  -6.0 3.23e+03 -10.4 5.30e-01 2.54e-01h  1
 221 -3.9817995e-02 1.20e+01 8.47e+01  -6.0 1.81e+03  -9.9 5.12e-01 8.22e-02h  1
 222 -4.0134313e-02 1.22e+01 6.39e+01  -6.0 4.86e+03 -10.4 1.88e-01 2.24e-01h  1
 223 -4.0781736e-02 1.56e+01 3.58e+01  -6.0 8.30e+03 -10.9 5.78e-02 2.60e-01h  1
 224 -4.0812088e-02 1.55e+01 2.87e+01  -6.0 2.69e+03  -8.7 1.01e-02 1.49e-01h  1
 225 -4.0857615e-02 1.00e+01 2.79e+01  -6.0 1.64e+02  -9.1 1.45e-01 3.52e-01h  1
 226 -4.0964697e-02 5.54e+00 2.84e+01  -6.0 5.51e+02  -9.6 3.61e-03 4.71e-01h  1
 227 -4.1097721e-02 4.57e+00 2.13e+01  -6.0 1.54e+03 -10.1 2.54e-01 2.16e-01h  1
 228 -4.1473295e-02 4.13e+00 1.80e+01  -6.0 4.53e+03 -10.6 1.16e-01 2.71e-01h  1
 229 -4.1502440e-02 2.00e-02 9.92e+00  -6.0 3.42e+00  -6.5 5.52e-01 1.00e+00h  1
iter    objective    inf_pr   inf_du lg(mu)  ||d||  lg(rg) alpha_du alpha_pr  ls
 230 -4.1484481e-02 9.88e-03 5.82e-01  -6.0 3.05e+00  -7.0 1.00e+00 1.00e+00h  1
 231 -4.1473400e-02 1.20e-02 5.00e-01  -6.0 4.92e+00  -7.5 1.00e+00 1.00e+00h  1
 232 -4.1473537e-02 2.97e-02 4.90e-01  -6.0 1.43e+01  -8.0 1.00e+00 1.00e+00h  1
 233 -4.1490405e-02 3.37e-02 3.10e-01  -6.0 4.18e+01  -8.4 1.00e+00 1.00e+00h  1
 234 -4.1515791e-02 6.99e-01 4.78e+00  -6.0 2.92e+02  -8.9 3.34e-01 5.85e-01h  1
 235 -4.1511825e-02 6.24e-01 1.79e+01  -6.0 1.12e+02  -8.5 1.00e+00 1.83e-01h  2
 236 -4.1684591e-02 2.44e-01 2.18e+01  -6.0 1.04e+02  -9.0 3.61e-01 1.00e+00h  1
 237 -4.1772107e-02 6.50e+00 1.76e+02  -6.0 3.14e+02  -9.4 1.53e-01 4.33e-01h  1
 238 -4.1732599e-02 4.28e+00 1.45e+02  -6.0 6.94e+01  -6.3 1.97e-01 2.96e-01h  1
 239 -4.1839099e-02 3.53e-01 4.38e+01  -6.0 7.62e+00  -5.9 1.00e+00 1.00e+00h  1
iter    objective    inf_pr   inf_du lg(mu)  ||d||  lg(rg) alpha_du alpha_pr  ls
 240 -4.1879310e-02 5.22e-01 4.14e+00  -6.0 7.04e+00  -6.4 1.00e+00 1.00e+00h  1
 241 -4.2173450e-02 1.00e+01 1.73e+02  -6.0 1.34e+02  -6.8 2.32e-01 1.92e-01h  1
 242 -4.3153454e-02 2.21e+01 3.56e+02  -6.0 2.47e+01  -7.3 2.85e-05 8.67e-01h  1
 243 -4.2735361e-02 1.62e+01 2.88e+02  -6.0 9.22e+01  -6.9 5.12e-01 2.72e-01h  1
 244 -4.3243764e-02 2.16e+01 5.21e+01  -6.0 8.34e+01  -7.4 3.13e-01 3.70e-01h  1
 245 -4.3702213e-02 1.23e+01 1.01e+02  -6.0 6.94e+01  -7.8 4.55e-01 4.72e-01h  1
 246 -4.3741336e-02 1.03e+01 2.44e+02  -6.0 7.14e+01  -8.3 7.33e-01 1.63e-01h  1
 247 -4.3844326e-02 5.13e+00 1.07e+02  -6.0 1.22e+02  -8.8 1.00e+00 5.00e-01h  1
 248 -4.3815957e-02 5.12e+00 9.36e+01  -6.0 6.79e+01  -8.4 5.99e-01 5.95e-01h  1
 249 -4.3806624e-02 4.29e+00 6.50e+01  -6.0 9.16e+01  -8.8 2.89e-02 1.89e-01h  1
iter    objective    inf_pr   inf_du lg(mu)  ||d||  lg(rg) alpha_du alpha_pr  ls
 250 -4.3808957e-02 5.25e+00 6.64e+01  -6.0 2.76e+02  -9.3 6.85e-01 9.03e-01f  1
 251 -4.3897629e-02 6.02e-01 7.86e+01  -6.0 2.39e+01  -7.1 1.45e-03 1.00e+00h  1
 252 -4.3899598e-02 8.78e-02 6.67e+00  -6.0 3.10e+00  -6.7 1.00e+00 1.00e+00h  1
 253 -4.3957865e-02 2.48e+00 5.06e+01  -6.0 1.73e+01  -7.1 1.00e+00 1.00e+00h  1
 254 -4.4095696e-02 2.69e+00 4.60e+01  -6.0 1.03e+01  -6.7 1.00e+00 1.00e+00h  1
 255 -4.4220865e-02 4.48e+00 8.20e+01  -6.0 1.40e+02  -7.2 1.25e-01 5.02e-02h  2
 256 -4.4389302e-02 5.53e+00 2.95e+02  -6.0 2.85e+01  -7.7 1.00e+00 2.63e-01h  2
 257 -4.4606055e-02 2.25e+00 2.02e+02  -6.0 2.90e+01  -8.1 1.00e+00 9.71e-01h  1
 258 -4.4731506e-02 3.19e+00 1.01e+02  -6.0 6.90e+01  -8.6 1.00e+00 1.00e+00h  1
 259 -4.4736796e-02 1.10e+00 9.71e+00  -6.0 1.97e+02  -9.1 3.67e-01 1.00e+00h  1
iter    objective    inf_pr   inf_du lg(mu)  ||d||  lg(rg) alpha_du alpha_pr  ls
 260 -4.4855791e-02 6.02e+00 3.75e+00  -6.0 5.97e+02  -9.6 6.38e-01 1.00e+00h  1
 261 -4.4904861e-02 1.27e-01 7.27e-01  -6.0 2.60e+02  -9.1 1.00e+00 1.00e+00h  1
 262 -4.4934014e-02 1.43e-01 5.00e+00  -6.0 2.40e+03  -9.6 1.92e-01 1.73e-01h  1
 263 -4.4969911e-02 5.62e-01 1.70e+01  -6.0 6.79e+02 -10.1 1.00e+00 2.36e-01h  1
 264 -4.5050487e-02 8.05e+00 1.11e+01  -6.0 1.77e+03 -10.6 5.44e-01 4.22e-01h  1
 265 -4.5073907e-02 3.35e+00 9.88e+01  -6.0 4.40e+02  -9.3 2.97e-03 7.80e-01h  1
 266 -4.5125754e-02 6.22e-01 2.13e+01  -6.0 2.13e+02  -9.7 7.41e-01 8.65e-01h  1
 267 -4.5142680e-02 1.02e+00 1.17e+01  -6.0 4.92e+02 -10.2 1.00e+00 4.65e-01h  1
 268 -4.5152340e-02 3.07e+00 1.36e+01  -6.0 1.32e+03 -10.7 1.00e+00 3.16e-01h  1
 269 -4.5152211e-02 3.72e+00 2.64e+00  -6.0 7.03e+02 -10.3 8.65e-01 7.70e-01h  1
iter    objective    inf_pr   inf_du lg(mu)  ||d||  lg(rg) alpha_du alpha_pr  ls
 270 -4.5166454e-02 6.19e-01 8.23e+00  -6.0 2.21e+02  -9.8 4.39e-02 1.00e+00h  1
 271 -4.5177798e-02 4.89e+00 3.12e-01  -6.0 6.14e+02 -10.3 1.00e+00 1.00e+00h  1
 272 -4.5174578e-02 6.33e+00 2.08e+01  -6.0 1.54e+03 -10.8 1.00e+00 3.15e-01h  1
 273 -4.5157463e-02 5.03e+01 3.72e+01  -6.0 7.43e+04    -  3.53e-02 2.52e-02h  1
 274 -4.5169459e-02 4.32e+01 1.18e+03  -6.0 2.15e+03    -  7.17e-01 1.70e-01h  1
 275 -4.5193050e-02 3.68e+01 3.52e+02  -6.0 1.18e+03    -  2.61e-01 1.48e-01h  1
 276 -4.5260111e-02 5.68e-01 1.52e+02  -6.0 9.99e+02    -  3.71e-01 1.00e+00h  1
 277 -4.5262022e-02 6.04e-02 8.04e-02  -6.0 7.16e+01    -  1.00e+00 1.00e+00h  1
 278 -4.5262285e-02 4.45e-04 1.09e-04  -6.0 3.17e+00    -  1.00e+00 1.00e+00h  1
 279 -4.5262290e-02 1.75e-07 3.75e-08  -6.0 6.38e-02    -  1.00e+00 1.00e+00h  1
iter    objective    inf_pr   inf_du lg(mu)  ||d||  lg(rg) alpha_du alpha_pr  ls
 280 -4.6234857e-02 6.64e+00 2.02e+02  -7.5 8.33e+03    -  1.42e-01 3.56e-01f  1
 281 -4.6476489e-02 5.92e+00 1.69e+02  -7.5 7.26e+03    -  1.61e-01 1.36e-01h  1
 282 -4.6595830e-02 5.58e+00 1.55e+02  -7.5 6.97e+03    -  8.16e-02 7.42e-02h  1
 283 -4.6792850e-02 1.39e+01 1.56e+02  -7.5 8.69e+03    -  1.00e-02 9.94e-02h  1
 284 -4.7011770e-02 1.84e+01 1.40e+02  -7.5 5.21e+03    -  1.13e-01 1.90e-01h  1
 285 -4.7088593e-02 1.70e+01 1.25e+02  -7.5 4.29e+03    -  1.08e-01 8.95e-02h  1
 286 -4.7400434e-02 1.46e+01 2.21e+02  -7.5 3.97e+03    -  1.87e-01 4.12e-01h  1
 287 -4.7468254e-02 1.19e+01 1.83e+02  -7.5 1.27e+03 -10.4 1.82e-01 1.84e-01h  1
 288 -4.7517221e-02 1.06e+01 8.71e+03  -7.5 2.61e+03    -  7.80e-03 1.27e-01h  1
 289 -4.7540785e-02 9.92e+00 8.14e+03  -7.5 2.27e+03    -  3.17e-01 6.75e-02h  1
iter    objective    inf_pr   inf_du lg(mu)  ||d||  lg(rg) alpha_du alpha_pr  ls
 290 -4.7561877e-02 9.36e+00 7.64e+03  -7.5 2.35e+03    -  6.99e-02 6.08e-02h  1
 291 -4.7612890e-02 8.84e+00 1.29e+04  -7.5 4.77e+03 -10.8 7.73e-03 1.38e-01h  1
 292 -4.7669484e-02 7.30e+00 1.05e+04  -7.5 2.36e+03    -  1.45e-02 1.80e-01h  1
 293 -4.7721930e-02 5.93e+00 8.52e+03  -7.5 2.01e+03    -  4.61e-02 1.91e-01h  1
 294 -4.7770939e-02 4.93e+00 6.72e+03  -7.5 1.73e+03    -  8.39e-03 2.11e-01h  1
 295 -4.7776210e-02 4.83e+00 6.59e+03  -7.5 2.04e+03    -  2.67e-01 2.01e-02h  1
 296 -4.7778285e-02 4.78e+00 6.52e+03  -7.5 1.49e+03    -  1.08e-01 1.03e-02h  1
 297 -4.7802084e-02 4.19e+00 4.91e+04  -7.5 1.41e+03    -  1.62e-03 1.34e-01h  1
 298 -4.7814140e-02 3.85e+00 4.51e+04  -7.5 1.22e+03    -  2.09e-03 8.20e-02h  1
 299 -4.7825899e-02 3.61e+00 4.20e+04  -7.5 1.36e+03    -  3.27e-01 6.76e-02h  1
iter    objective    inf_pr   inf_du lg(mu)  ||d||  lg(rg) alpha_du alpha_pr  ls
 300 -4.7846453e-02 3.23e+00 3.68e+04  -7.5 1.30e+03    -  1.53e-02 1.25e-01h  1
 301 -4.7866365e-02 2.86e+00 3.19e+04  -7.5 1.19e+03    -  7.09e-03 1.34e-01h  1
 302 -4.7868581e-02 2.81e+00 3.13e+04  -7.5 9.61e+02    -  2.82e-01 1.89e-02h  1
 303 -4.7880570e-02 2.54e+00 2.79e+04  -7.5 1.06e+03    -  2.66e-02 1.08e-01h  1
 304 -4.7885746e-02 2.40e+00 2.63e+04  -7.5 2.91e+02    -  2.49e-03 5.86e-02h  1
 305 -4.7895090e-02 2.21e+00 2.40e+04  -7.5 1.08e+03    -  9.23e-03 8.81e-02f  1
 306 -4.7899247e-02 2.11e+00 2.29e+04  -7.5 7.85e+02    -  6.01e-03 4.55e-02h  1
 307 -4.7911236e-02 2.29e+00 2.08e+04  -7.5 2.75e+03    -  2.28e-02 9.12e-02h  1
 308 -4.7916612e-02 2.38e+00 1.96e+04  -7.5 1.98e+03    -  1.78e-02 5.63e-02h  1
 309 -4.7924553e-02 2.96e+00 1.80e+04  -7.5 2.59e+03    -  1.17e-01 8.19e-02h  1
iter    objective    inf_pr   inf_du lg(mu)  ||d||  lg(rg) alpha_du alpha_pr  ls
 310 -4.7932246e-02 3.71e+00 1.63e+04  -7.5 2.52e+03    -  1.28e-02 9.72e-02h  1
 311 -4.7943756e-02 6.67e+00 1.31e+04  -7.5 2.39e+03    -  5.58e-03 1.95e-01h  1
 312 -4.7948668e-02 9.01e+00 1.05e+04  -7.5 2.41e+03    -  1.41e-03 1.94e-01f  1
 313 -4.7949096e-02 2.78e+01 3.36e+03  -7.5 1.31e+03    -  7.96e-04 1.00e+00f  1
 314 -4.7949275e-02 2.39e+01 2.90e+03  -7.5 3.80e+02 -11.3 6.68e-01 1.39e-01h  1
 315 -4.7949646e-02 1.12e+01 1.32e+03  -7.5 5.86e+02 -10.9 2.85e-01 5.44e-01h  1
 316 -4.7960780e-02 6.94e+00 2.15e+01  -7.5 6.56e+02    -  9.11e-01 1.00e+00h  1
 317 -4.7962584e-02 2.87e+00 8.89e+00  -7.5 4.13e+00  -6.8 3.02e-01 5.87e-01h  1
 318 -4.7970057e-02 2.66e+00 1.13e+01  -7.5 4.23e+01  -7.3 1.23e-01 7.29e-02h  1
 319 -4.7981368e-02 2.53e+00 4.18e+01  -7.5 7.07e+01  -7.8 7.90e-02 4.81e-02h  1
iter    objective    inf_pr   inf_du lg(mu)  ||d||  lg(rg) alpha_du alpha_pr  ls
 320 -4.7981911e-02 2.52e+00 1.85e+02  -7.5 2.64e+03    -  1.88e-01 3.29e-03h  1
 321 -4.8072886e-02 8.00e+01 4.53e+02  -7.5 2.53e+03    -  3.05e-01 9.82e-01f  1
 322 -4.8074058e-02 7.82e+01 6.39e+02  -7.5 2.39e+03    -  4.40e-01 2.26e-02h  1
 323 -4.8085855e-02 6.24e+01 3.34e+03  -7.5 3.48e+03    -  1.21e-02 2.03e-01h  1
 324 -4.8122104e-02 2.18e+01 1.99e+03  -7.5 4.41e+02    -  2.43e-01 6.53e-01h  1
 325 -4.8145483e-02 1.37e+01 1.25e+03  -7.5 7.05e+02    -  3.94e-01 3.71e-01h  1
 326 -4.8129331e-02 2.62e+00 7.63e+05  -7.5 4.51e+02    -  2.02e-03 1.00e+00h  1
 327 -4.8127773e-02 5.16e-01 5.78e+01  -7.5 7.02e+01    -  5.17e-01 1.00e+00h  1
 328 -4.8129990e-02 2.11e-03 9.57e-02  -7.5 5.10e+00  -8.3 8.67e-01 1.00e+00h  1
 329 -4.8175525e-02 4.28e+01 1.20e+00  -7.5 3.18e+03    -  4.80e-02 5.42e-01h  1
iter    objective    inf_pr   inf_du lg(mu)  ||d||  lg(rg) alpha_du alpha_pr  ls
 330 -4.8160704e-02 3.75e+01 1.22e+00  -7.5 2.35e+03    -  5.04e-01 3.00e-01h  2
 331 -4.8193473e-02 6.97e+01 2.87e+00  -7.5 1.00e+04    -  8.17e-02 1.58e-01h  1
 332 -4.8166216e-02 5.59e+01 9.87e+01  -7.5 2.19e+03    -  2.39e-01 6.61e-01h  1
 333 -4.8174912e-02 1.35e+01 2.00e+03  -7.5 8.89e+02    -  3.79e-04 1.00e+00h  1
 334 -4.8173580e-02 4.41e-01 1.12e+01  -7.5 1.53e+02    -  9.27e-01 1.00e+00h  1
 335 -4.8188753e-02 2.23e+01 6.00e-01  -7.5 1.19e+03    -  8.42e-01 1.00e+00h  1
 336 -4.8183712e-02 8.12e-01 1.49e-02  -7.5 1.97e+02    -  1.00e+00 1.00e+00h  1
 337 -4.8183353e-02 2.42e-04 5.88e-05  -7.5 2.96e+00    -  1.00e+00 1.00e+00h  1
 338 -4.8183352e-02 5.11e-08 2.88e-08  -7.5 5.50e-02    -  1.00e+00 1.00e+00h  1
 339 -4.8189086e-02 1.35e+00 8.88e-01  -9.0 7.93e+02    -  2.81e-01 3.78e-01h  1
iter    objective    inf_pr   inf_du lg(mu)  ||d||  lg(rg) alpha_du alpha_pr  ls
 340 -4.8190185e-02 5.02e-01 2.90e+03  -9.0 2.02e+02    -  2.48e-02 6.36e-01h  1
 341 -4.8190185e-02 5.02e-01 2.90e+03  -9.0 4.90e-01  -0.4 1.24e-04 5.22e-05h  1
In iteration 341, 1 Slack too small, adjusting variable bound
 342 -4.8190185e-02 5.02e-01 2.90e+03  -9.0 4.90e-01  -0.0 6.76e-02 5.79e-05h  1
 343 -4.8190177e-02 4.97e-01 2.87e+03  -9.0 4.90e-01  -0.5 2.25e-02 1.04e-02h  1
 344 -4.8190148e-02 4.82e-01 2.79e+03  -9.0 4.85e-01  -1.0 8.47e-02 2.90e-02h  1
 345 -4.8190119e-02 4.67e-01 2.70e+03  -9.0 4.71e-01  -1.4 9.89e-02 3.22e-02h  1
 346r-4.8190119e-02 4.67e-01 9.99e+02  -0.3 0.00e+00  -0.1 0.00e+00 2.31e-08R  2
 347r-4.8189893e-02 4.67e-01 9.99e+02  -0.3 4.04e+07    -  9.45e-11 4.67e-12f  1
 348r-4.8193257e-02 4.67e-01 9.99e+02  -0.3 9.61e+04    -  3.08e-07 3.57e-08f  1
 349 -4.8188486e-02 4.66e-01 5.03e+00  -9.0 4.47e+03    -  5.09e-02 1.85e-03h  1
iter    objective    inf_pr   inf_du lg(mu)  ||d||  lg(rg) alpha_du alpha_pr  ls
 350 -4.8195015e-02 5.97e-01 4.20e+00  -9.0 3.48e+03    -  2.78e-01 5.59e-02h  1
 351 -4.8198895e-02 9.50e+00 2.71e+00  -9.0 2.37e+03    -  3.88e-01 3.25e-01h  1
 352 -4.8217163e-02 1.81e+01 2.36e+00  -9.0 1.60e+03    -  3.12e-01 6.16e-01h  1
 353 -4.8217099e-02 1.81e+01 7.71e+01  -9.0 2.21e+00  -0.6 2.56e-09 2.34e-03h  1
 354 -4.8217049e-02 1.80e+01 7.70e+01  -9.0 2.20e+00  -1.1 2.05e-03 1.68e-03h  1
 355 -4.8216946e-02 1.80e+01 7.67e+01  -9.0 2.20e+00  -1.5 2.50e-03 2.95e-03h  1
 356 -4.8216664e-02 1.79e+01 7.63e+01  -9.0 2.19e+00  -2.0 1.14e-03 5.60e-03h  1
 357 -4.8216102e-02 1.78e+01 7.60e+01  -9.0 2.18e+00  -2.5 1.31e-03 3.92e-03h  1
 358 -4.8214733e-02 1.77e+01 7.54e+01  -9.0 3.94e+00  -3.0 2.03e-03 4.81e-03h  1
 359 -4.8212070e-02 1.76e+01 7.40e+01  -9.0 5.49e+00  -3.5 2.99e-03 6.85e-03h  1
iter    objective    inf_pr   inf_du lg(mu)  ||d||  lg(rg) alpha_du alpha_pr  ls
 360 -4.8205448e-02 1.72e+01 6.61e+01  -9.0 6.54e+00  -3.9 2.89e-02 2.06e-02h  2
 361 -4.8202595e-02 1.70e+01 6.46e+01  -9.0 4.97e+00  -4.4 3.89e-02 1.21e-02h  4
 362 -4.8200978e-02 1.69e+01 6.38e+01  -9.0 4.31e+00  -4.9 2.43e-02 8.87e-03h  4
 363 -4.8200376e-02 1.68e+01 6.36e+01  -9.0 1.07e+01  -5.4 9.36e-03 2.63e-03h  3
 364 -4.8200363e-02 1.68e+01 6.36e+01  -9.0 3.97e+00  -4.9 1.61e-01 8.41e-05h 11
 365 -4.8198424e-02 1.68e+01 6.34e+01  -9.0 5.54e+01  -5.4 1.32e-03 1.73e-03h  1
 366 -4.8182039e-02 1.50e+01 2.83e+01  -9.0 4.04e+00  -5.0 4.23e-02 1.09e-01h  1
 367 -4.8184271e-02 1.47e+01 2.79e+01  -9.0 3.44e+00  -5.5 5.20e-02 1.69e-02h  1
 368 -4.8182916e-02 1.42e+01 2.68e+01  -9.0 1.81e+00  -5.0 3.98e-01 3.42e-02h  1
 369 -4.8186172e-02 1.38e+01 2.61e+01  -9.0 4.16e+00  -5.5 1.73e-01 2.64e-02h  1
iter    objective    inf_pr   inf_du lg(mu)  ||d||  lg(rg) alpha_du alpha_pr  ls
 370 -4.8185244e-02 1.36e+01 2.55e+01  -9.0 1.69e+00  -5.1 4.75e-01 1.78e-02h  1
 371 -4.8181595e-02 1.18e+01 2.26e+01  -9.0 2.25e+00  -5.6 8.48e-01 1.35e-01h  1
 372 -4.8185981e-02 1.12e+01 2.16e+01  -9.0 9.91e+00  -6.0 1.00e+00 4.37e-02h  1
 373 -4.8166272e-02 3.58e+00 1.24e+01  -9.0 1.37e+00  -5.6 3.01e-01 6.82e-01h  1
 374 -4.8171084e-02 3.12e+00 1.08e+01  -9.0 2.20e+00  -6.1 5.22e-01 1.28e-01h  1
 375 -4.8180363e-02 2.58e+00 8.90e+00  -9.0 4.59e+00  -6.6 3.42e-01 1.73e-01h  1
 376 -4.8190074e-02 2.22e+00 7.63e+00  -9.0 5.88e+00  -6.1 2.04e-01 1.37e-01h  1
 377 -4.8190443e-02 9.32e-01 3.21e+00  -9.0 3.93e-01  -4.8 1.23e-01 5.81e-01h  1
 378 -4.8189335e-02 7.57e-01 2.61e+00  -9.0 2.67e-01  -5.3 9.63e-01 1.88e-01h  1
 379 -4.8188723e-02 1.86e-01 6.46e-01  -9.0 1.61e-01  -5.8 1.00e+00 7.54e-01h  1
iter    objective    inf_pr   inf_du lg(mu)  ||d||  lg(rg) alpha_du alpha_pr  ls
 380 -4.8188451e-02 5.74e-06 1.53e-02  -9.0 2.62e-01  -6.2 1.00e+00 1.00e+00h  1
 381 -4.8191140e-02 2.21e-02 1.17e-02  -9.0 4.87e+02    -  2.05e-02 3.02e-02h  1
 382 -4.8190814e-02 2.12e-02 4.32e-01  -9.0 2.48e+01  -6.7 1.51e-03 4.21e-02h  2
 383 -4.8190976e-02 2.10e-02 4.29e-01  -9.0 9.76e+01  -6.3 1.22e-02 6.95e-03h  1
 384 -4.8191091e-02 2.09e-02 4.27e-01  -9.0 3.21e+01  -5.9 4.71e-02 5.44e-03h  1
 385 -4.8191009e-02 2.09e-02 4.27e-01  -9.0 4.68e+02  -6.3 4.26e-04 8.09e-04h  5
 386 -4.8191025e-02 2.09e-02 4.26e-01  -9.0 4.42e+01  -5.9 6.85e-02 1.73e-03h  1
In iteration 386, 1 Slack too small, adjusting variable bound
 387 -4.8192304e-02 1.70e-02 3.46e-01  -9.0 1.25e+01  -5.5 2.20e-02 1.86e-01f  1
 388 -4.8190256e-02 1.69e-02 3.45e-01  -9.0 3.83e+01  -5.1 6.61e-03 2.87e-03h  2
 389 -4.8189012e-02 1.68e-02 3.42e-01  -9.0 4.96e+00  -4.6 3.24e-02 1.04e-02h  3
iter    objective    inf_pr   inf_du lg(mu)  ||d||  lg(rg) alpha_du alpha_pr  ls
 390 -4.8188796e-02 1.67e-02 3.40e-01  -9.0 1.29e+00  -4.2 4.26e-02 6.62e-03h  5
